,channel
1516739,suneyeholmes29
1516740,pramodkyal7281
1516741,baywalkbizmain
1516742,erisavvydesigns
1516743,el_ab0501
1516745,ShareeAnonuevo
1516746,jennymeng3961
1516747,aftermoodstd
1516748,Mrs.curious
1516749,DianneFagoArt
1516750,disenoxperts
1516751,thevoydesign
1516752,VincentChrisna
1516754,crisurzuaenglish
1516756,musamonibd
1516757,officekeypad
1516759,SmartLearning12
1516760,kingsikesart
1516761,do1k
1516762,starlynmedia
1516765,dsdgroup8834
1516766,hihellohindigamer2.0HG
1516767,yesunboxed2680
1516768,n2abadi333
1516769,BrochureDesignService
1516770,makinerz
1516771,LovellArt
1516772,southerncharmwreaths
1516775,aksquad6409
1516776,KarinW
1516777,jaya1283
1516778,aserdarbayram
1516780,projectpower696
1516781,handmadebyreet
1516782,dugpa
1516783,YegoSky
1516784,TravelpreneurDreamsWithTyra
1516785,BecsMcNeill
1516786,StampingtonCo
1516787,printleaf
1516788,OneClickRick
1516789,artforkidsbyyogesh
1516790,Thecre8usSeries
1516791,rockbridgereport
1516792,moviedoscope
1516794,PricklyPinkCrafter
1516795,ARTISTWORLD1
1516796,mtemanufacturer
1516797,lucylearns
1516798,WorldWithArt
1516799,livingcolorspublishing
1516800,OldSnake47
1516801,caz42atelier
1516802,digitalshots4963
1516803,/IslaPalawe%C3%B1a
1516804,learnwithproject20
1516805,ujjavalsworldofart2873
1516807,oussamazaaboubi
1516808,fireflyproductions841
1516809,adiattechai
1516810,TJ_Designs
1516811,gaoelnlaojehc8913
1516812,cpzdesign
1516813,machsuper
1516814,thinkwows
1516816,freelesson7417
1516817,saiakshayaproductions
1516818,aetemplates6908
1516819,akramnawaz786
1516820,sanjraniartist
1516822,clinicblast
1516823,jinasayyed
1516824,Ravimandal220
1516825,svarakshakala2.026
1516826,ColourGradingInKannada
1516827,careervisioninstitute
1516828,itsSaniyaYt
1516829,rohitkevlogs72
1516830,sandi_official03
1516831,NozNK
1516832,CarsloverAST
1516834,Teamhoremks
1516835,gdkvlogs1145
1516836,PTMMamunTV
1516838,teknoah
1516839,AryelSolis
1516840,mkeditor2254
1516841,maui2kc
1516842,factsbrighter
1516843,lexizuziak7797
1516844,TravellingGuru-th2wt
1516846,fepeonline121
1516848,mahendrar6836
1516849,technoforte5631
1516850,RichestGreen
1516851,jpvictoria
1516852,wildtechno
1516853,R.Beditzone
1516854,bhanusmart
1516856,erinforsyth6397
1516857,adriacerezobertran8507
1516858,new_projects
1516859,VINAYEDITING
1516861,ezekiel2925
1516862,craftingwithpaula
1516863,shreyaxmakeup
1516864,andrewwise1569
1516865,chestnutgrovestudios833
1516866,PayalGangwar323
1516867,mr.kirwant4663
1516868,Canvatutorial1
1516869,_soanpapdi_069
1516870,digitalwattss
1516871,aaronowen1945
1516872,shambhvishah
1516873,lauradenny
1516874,AZearnonlineinstitute
1516875,Vivek_Hegde
1516876,Ara_Vlog29
1516877,ArtedasFrance
1516878,elladurman
1516879,YourcoverMagazineCovers
1516880,sejalmakhija3172
1516881,johnkalmar7320
1516882,FullStack_Traveller
1516883,dougnotguilty
1516885,rezaalinia5801
1516886,NicoleCarsonBonilla
1516888,aaqibaleetechnical5315
1516889,jabwetrravel770
1516890,alexiamayoral8979
1516891,evilshelledits
1516892,Skillmatrix_
1516893,Yityoutube
1516894,Tusharvlog101
1516895,Hamiddesigner0
1516896,rvogchannel6319
1516897,svtechz
1516898,AkshayandShubham
1516899,SnehalNareshPatil
1516900,theindigo3134
1516902,superaffiliatetoolbox8940
1516903,intellectdigest
1516904,buzzduosoundsmusic4101
1516905,Shwetsingh777
1516906,testingaround
1516907,shimmerzpaintsTV
1516908,nerdyartkid
1516910,Ayesha_innovations
1516911,VTuber
1516912,TheTechCivilizationTTC
1516913,skyfly2.0
1516914,ebphotography2429
1516915,MR-BROKEN-FF
1516916,user-oj6zh1yb2d
1516918,5starsocialmedia
1516919,kyleighelizabethw
1516920,codecancel5534
1516922,LUMETRY
1516923,FastDealsAdvertising
1516924,ReneaBouquets
1516927,sparkes7293
1516928,AddRealityAR
1516929,terrascopeofficial
1516930,TopBestRank
1516931,ChrisGetsKreative
1516933,InfinityDesignDev
1516934,artsentertainment7758
1516937,samkani5941
1516939,coworkingcooperative
1516940,softwarereview908
1516941,ramkiyar
1516942,SophieTeaArt
1516943,Opdmedia.
1516944,vsketchart
1516945,ashleybrennanacademics3512
1516946,arabiccalligraphy5738
1516947,yifengwei1465
1516948,techietawk
1516949,FreelanceAnnaPerez
1516951,tendercaremotorstolic996
1516952,r-pargamer1220
1516953,LynzByrne
1516954,MissEmsStuff_Ph
1516956,abhibrar4000
1516957,LunaGrangers
1516958,TechGenOfficial
1516959,NEEVIITGN
1516960,hannel/UCTTh2g8xHA9VAlAoRBsnxZA
1516961,SirGTech
1516962,rashizcrafttv8763
1516963,pionext3d219
1516964,freezyAndHaze
1516965,BILLO-NIK
1516966,/DesigndeConvers%C3%A3o
1516967,Yuta_Hiraoka
1516969,ipsy
1516971,rewinai
1516972,SephaLtd
1516973,einstien_gaming
1516975,AppalachianHomeCo
1516976,asaanrozee
1516977,joehackettca
1516978,quicktechtipss
1516979,KATCADCENTER
1516980,mechanicalacademy970
1516981,aqeel1370
1516983,srinita
1516984,ecomcourses8038
1516985,KnitKind
1516986,technoiti
1516988,mihameden1753
1516990,DanTyler
1516992,dronewilder5234
1516993,cakejunkiexo
1516994,arylfilms
1516996,teevives3.0
1516997,gadgeteer10000
1516998,rizwan-0-graphic
1516999,VictoriaHandProject
1517000,DrVijayChoyal
1517001,HowToSellCrafts
1517002,sharastuart3688
1517003,JJBeanDesigns
1517004,archan6396
1517005,ivonnewild
1517006,solidprize2185
1517007,ilmastonyt7170
1517008,mallyatmallytov-brandingin2478
1517009,chromaodyssey
1517010,Deepti_86
1517011,EngDP
1517012,LifewithYonnie
1517013,sokundavannchriv3967
1517014,JunkJournalideas
1517015,obscure.vision
1517016,risnaramadhanirisna
1517017,chamiltharidu-wm5dc
1517019,ogunkoyatobiadenike8769
1517020,luxtools2503
1517021,AK27666
1517022,holdspacecreative
1517023,maylanyprecillyap9645
1517024,Historylegendsforyou
1517026,meganjosolart
1517027,ZeddCreations
1517029,Sonmartgallery
1517030,ia_editz
1517031,Writifyroyal
1517032,gourabgupta
1517033,genevievelopiga3065
1517034,whitepointcolor1722
1517035,bbbismababy9462
1517036,HypeMotorsportsMedia
1517037,BillaMP4
1517038,shilpakumariofficial209
1517039,AfroMedia54
1517040,baridorzagha8145
1517042,joshdefeo4651
1517044,krithikramesh3615
1517045,walinti2643
1517046,TechnicalSardarjiOfficial
1517047,DavidGrippe
1517048,marwaartstudio
1517049,InformationNews1515
1517050,sharpshootercosplay2793
1517051,tejaaditz1470
1517052,osonduokeugo
1517053,antiqueArtz
1517054,pinkcrownstudio
1517055,ashik6t6
1517057,famboltkabaap760
1517058,CaptureChaosMedia
1517059,RyanReporting
1517061,raziqalitv7611
1517062,PatelFilmsEditingVFX
1517063,tunesofcraft
1517065,TechMyFamily
1517066,vivienscreativitylab
1517067,BeoncaLouis
1517068,photographytipstamil8971
1517069,tiivra
1517070,SihlUSA
1517071,jbseditor05
1517072,AddiGanley
1517073,stresslesssketchess
1517074,rabijay1
1517075,swapnalisartgallery
1517076,skillzeera
1517077,yesayayanuar8665
1517078,monzi-art
1517079,KarenLeeArtist
1517080,UtahTrikesOnline
1517081,skdesignerworld2780
1517082,GirisimYeri
1517083,HosannaOtchere
1517084,addycottle
1517085,loveartstudios19
1517087,TECHIEINFOJOBUPDATES
1517088,LandRoverUK
1517090,strokesandsnips
1517091,dkre8tive_hub
1517092,seoraj_
1517093,adamkim4707
1517094,Shivalika_Sahu
1517096,shootsomething2270
1517098,quize1238
1517099,wave7496
1517100,joannajacob497
1517102,diycraftsupermom537
1517103,bunchofcanvas2529
1517104,Mariosenda
1517105,nehadubeyart3397
1517106,AP07z
1517109,thevikingproductions_
1517112,stellerarts
1517113,SouravPandey
1517114,averagefellaspodcast2220
1517115,confusedandterrifiedwriter7975
1517116,BritniDanielle
1517118,MRZWholesale
1517120,fcdistanceeducation7605
1517121,thewarzone
1517123,northburngardens
1517124,startuplesson8800
1517125,kristiankruz
1517126,yathprem
1517127,lptrealty
1517129,Affordable-Business-Website
1517130,waywardredbeard3373
1517131,nidhipatel9096
1517132,dimasandi5772
1517134,aajkuchsikhnahaithebesttui5528
1517136,Debtfreehomesteaders
1517138,evangelialeclaire8277
1517139,inviradigitallab5934
1517140,danyelgallo
1517141,uartsCTLD
1517142,shmoggo
1517144,discoverprint
1517146,charleesg
1517148,deeannsdigitaldesigns
1517150,RobertFSmithOfficial
1517151,templett_official
1517153,MissSolid10
1517154,coachesnextlevel5189
1517155,marielabelenrivas3720
1517156,hansolo312
1517157,fanbelleditz8517
1517158,dailygrowth8032
1517159,FinalCutArmyTutorials
1517160,dronactivos3618
1517163,kiraneditgraphy7943
1517165,techguruorbit
1517166,vonmises8680
1517167,cimecingenieria5131
1517168,oloyeoluwadara1895
1517169,profitablecreations3614
1517170,miscsolidworksandvaulttrai2327
1517171,feelforest
1517172,mkeditz2657
1517173,Mr.Omer98
1517178,creatordredd
1517179,smithimplementsinc5353
1517180,RepodP
1517181,perspectivehddesignsolutio9740
1517182,bossthings1019
1517183,_CMeditz
1517184,PaOTutOriales1
1517185,kalilamakesit
1517186,RsPhotography
1517187,lwcwithvsdclearningworking4445
1517188,knsutelevison1867
1517189,camphotobooths111
1517191,BridgeportTabernacleSDAChurch
1517192,sibuvolgs2670
1517193,thespablueprint
1517194,CimatronCAMHindi
1517195,MatthewNorthwood
1517196,compolab9815
1517197,MeekFro
1517198,jaideepyadav155
1517199,aaacreativecrackers7803
1517200,_graphimation_
1517201,VirginiaFarmBureau
1517202,mohamednajmee
1517203,FCIproductions
1517204,evilgenious100
1517205,Elite_Brother
1517206,blackz3218
1517207,HelloKeyy
1517208,dynamokidz9553
1517209,kliodesign
1517210,LouiseMasonMarketing
1517211,beinspireddigitals7120
1517212,amyplansthings
1517213,DIYpreneur
1517214,Android_GAMER_2022
1517215,capturemagic5304
1517216,Philflash
1517217,tsssinsight493
1517219,silverdalebusiness6998
1517220,pccartfaculty3986
1517221,abhiramiinterior
1517222,Makeithappenbyshraddhapatil
1517223,colorfulpadminicreations
1517224,piidm
1517225,englishprogram2331
1517226,Pooja73443
1517227,terranelsonhome
1517228,zainabsehar8730
1517229,DavidSmith-so7go
1517230,CollateralDamager
1517232,kimoneal4187
1517233,jasondemaria2548
1517234,SpacedOutZab
1517235,shm_clix
1517238,TAREKEDITZ
1517239,EnhanceEducations
1517240,mrss-foundationphaseteache6355
1517241,EleftheriaBarbagianni
1517242,VAB1990
1517243,JohnMagnoski
1517246,HydroelectricityEuSiapro
1517247,canvacrazycreatives
1517248,glamwithisis
1517249,greysack1097
1517250,manoj_shah402
1517251,knotty__knitters
1517252,IndianConsumersExperience
1517253,3Dmodelling-ok8sr
1517254,Easycanvasprints
1517255,KaliChronicles
1517256,million-drawing
1517257,emilytriggs668
1517259,blackhawktech6230
1517260,2A_CaliGuy
1517261,hdrphotography101
1517262,PREMLYTECH
1517263,SomaliDocumentary
1517264,AndreaMercierArtist
1517265,rachelbayney4553
1517266,lashauntaemuobonuvie7222
1517267,yaboytk4544
1517268,ertechguruji6057
1517269,solidworkswithuday
1517270,useplr2969
1517271,jitcodeshorts7449
1517272,ChrisMcDonough
1517273,megabedoya
1517274,artzology
1517275,5S_Automobile
1517276,worldwebtechs
1517277,Shaukat90
1517278,kxkgraphics783
1517279,sazzadhossain01
1517280,COwensCrazyCraftingLife
1517281,puteria.medinameddy4700
1517282,canvaextra6260
1517283,SM-pt5ir
1517284,phonicsplayground1321
1517285,gioviardesigngraphic8403
1517286,frozenyt200
1517287,MdMaqsoodAhmed
1517288,mattwelchmedia355
1517289,msgraphics7431
1517290,plmcadtraining
1517291,HowTodesign
1517292,RidaFatima-bw7te
1517293,semmedia
1517294,maestraclary
1517295,Amanulldesign
1517296,elizabethakin1553
1517298,DavidPinca-mb2ir
1517299,StephanieWyantSociallyFamous
1517300,noahvirjee2007
1517301,BAbdoyan
1517302,Colorssb
1517303,riyaturakhiafc7755
1517304,OnlyMediaThings73abii
1517307,techyousomuch1404
1517310,IvetaZiedina
1517311,mechanicworks1919
1517312,Shalovette
1517313,cadcamtutorials4356
1517314,tarsanmedia2117
1517315,moredesignsby.jeanjadens
1517316,chelsyweisz
1517317,CreativeGFXAnees
1517318,asadandcode
1517319,O.GsVisualArtDesigns
1517320,kathleenbroaderick3512
1517321,authorandrewzee9524
1517323,muhammedbava-thedigitalcoa4925
1517324,alicelane
1517325,iamvimalsinghofficial
1517326,iansands1
1517328,GuzaliyaXavierArt
1517329,EnergyFi3lds
1517330,AnastasiaMily
1517333,itsdianasdiy
1517335,Mechatronics22
1517336,TersiaRoux
1517337,cncduyan6543
1517338,StacemanFPV
1517339,expressionscraft
1517340,kimberlysheehan4914
1517341,lashelled.clove.dream.crea7728
1517342,JayBaron
1517343,kjsharp82
1517344,mingjieprecisionstampingdi3857
1517345,solidokpyt9978
1517346,profstewartlopez9642
1517347,byashleenicole
1517348,Dinaapriliachannel
1517349,chloebissonofficial
1517352,Anshuluniyyal
1517353,kirstenhigh1182
1517354,MalinRoshen
1517355,3D_IDEAS_4U
1517356,surprisemaker7915
1517357,mightyslide
1517358,mostlyquilts1386
1517359,TheZombiecowmeat
1517361,CraftoSea
1517362,swayamsartclub
1517363,harrisongrn
1517365,jasleen_palette
1517366,hannel/UCttQrlSF4utcTxX0bdFjOzw
1517367,christinabrown74
1517368,WisnuGareng
1517370,sdanimation459
1517371,PengfengPrecision-lm1fk
1517372,jx3inspirationsbydilia
1517373,jordonk5947
1517374,Shirlscraftyworld
1517376,SingleWomanChronicles
1517377,byMOTION.
1517378,editer420
1517379,artisticlynx
1517380,nanajl54
1517383,candidcolorsystems
1517384,travelwitharie
1517386,WedittsPlaythings
1517387,onlylachhman
1517388,egreat
1517389,concavestudio129
1517392,mrhomes5227
